Traveling Salesman Problem/TSP_generados/Aleatorio1621103290_8.tsp
NAME: Aleatorio1621103290_8.tsp
COMMENT: Randomly generated scenario
TYPE: TSP
DIMENSION: 8
EDGE_WEIGHT_TYPE: ATT
NODE_COORD_SECTION
1 8.96 22.1
2 23.06 3.15
3 3.87 18.42
4 11.19 8.69
5 44.73 28.86
6 22.71 40.63
7 3.65 27.58
8 42.11 9.86
