Traveling Salesman Problem/TSP_generados/Aleatorio1621103290_8.opt.tour
NAME: Aleatorio1621103290_8.opt.tour
COMMENT: Optimal solution for Aleatorio1621103290_8 (126.6314978743204)
TYPE: TOUR
DIMENSION: 8
TOUR_SECTION
1 3 4 2 8 5 6 7
-1
EOF
